
 102   30
  10   10   10   10   10   10   10   10   10   10   10   10   10   10   10   10   10   10   10   10   10   10   10   10   10   10   10   10   10   10

   0   0   0   0   0   0   0   0   0   0   0   0   0   0   0   0   0   0   0   0   0   0   0   0   0   0   0   0   0   0   0  26 2 3 4 5 6 8 9 10 11 13 14 15 17 18 20 21 22 23 24 25 26 31 32 36 42 53 
   7   0   0   0   0   0   2   0   0   0   0   0   0   1   0   0   0   0   0   1   0   0   0   0   0   0   0   0   0   0   0   8 59 58 57 50 47 46 12 7 
   3   0   0   0   0   0   0   0   0   0   0   0   1   0   0   0   0   1   0   0   0   0   0   0   0   0   0   0   0   0   0  12 101 65 59 56 50 47 41 40 35 33 19 16 
  10   0   0   1   0   0   0   0   1   0   0   0   0   0   0   0   0   0   0   0   0   1   0   0   0   0   0   0   0   0   0   9 101 74 57 41 39 30 29 19 16 
   8   3   0   0   0   0   4   0   0   0   0   0   0   0   0   0   0   0   0   4   0   0   0   2   0   0   2   0   0   0   0  16 101 100 97 70 65 64 58 57 55 51 45 44 43 41 38 19 
   6   0   0   0   0   0   0   0   0   0   0   0   0   8   0   0   1   0   0   0   0   0   0   0   0   0   0   0   0   0   0  13 101 98 95 72 71 66 58 49 47 46 45 29 16 
   1   0   0   0   0   0   0   1   0   0   0   0   0   6   0   0   0   0   0   0   1   0   0   0   0   0   0   0   0   0   1  11 98 95 74 72 71 66 52 49 45 29 16 
   6   0   5   4   0   0   0   0   0   0   0   0   0   0   0   0   0   8   0   0   0   0   0   0   0   0   0   0   0   0   9  16 99 97 74 73 72 70 65 64 61 56 55 51 47 45 34 27 
   6   4   0   7   0   0   7   0   0   0   0   1   9   0   0   0   8   0   0   0   0   0   0   0   1   0   0   0   0   2   0  17 101 100 99 98 92 91 88 74 71 66 61 55 49 45 39 34 29 
   1   0   0   0   0   3   0   0   0   0   0   0   0   0   0   0   0   0   0   0   0   0   0   5   0   0   0   0   0   0   0  15 74 70 64 63 62 61 57 56 51 49 47 41 37 34 27 
   7   0   0   0   0   0   0   0   0   0   0   0   0   0   0   0   4   0   0   0   0   0   0   0   0   0   0   0   0   0   0   7 95 71 57 52 49 29 16 
   2   0   0   0   0   0   4   0   0   0   0   0   0   0   5   0   5   0   0   0   0   0   0   0   0   0   6   0   0   0   0  22 101 100 99 97 96 95 92 74 73 70 69 65 64 63 62 61 60 52 49 48 41 38 
   8   8   0   8   0   0   0   0   0   0   0   0   0   0   3   0   6   0   0   5   0   0   0   0   6   0   0   0   0   0   6  21 100 98 97 90 89 74 71 70 65 64 62 61 60 59 58 57 56 49 47 43 35 
   9   0   0   0   0   0   0   0   0   0   0   0   0   0   0   0   0   0   0   0   0   9   0   0   0   0   0   1   0   0   0  14 99 95 93 89 71 64 60 57 52 49 45 43 38 30 
   3   0   7   0   0   0   0   0   0   0   0   0   0   0   0   0   0   0   1   6   0   0   0   0   0   0   4   0   0   0   0  16 100 97 92 90 73 72 71 65 64 63 61 57 56 49 47 28 
   9   0   7   0   0   0   0   0   0   1   3   0   8   5   0   0   0   0   0   6   0   0   0   0   0   0   7   0   0   0   0  18 100 99 97 96 94 92 73 70 64 63 62 61 60 55 51 48 44 43 
   5   0   0   0   0   0   0   7   0   0   0   0   0   0   0   0   0   0   0   0   0   0   0   0   0   0   0   0   2   3   0  18 100 98 97 95 93 92 72 70 66 61 60 59 58 54 52 49 46 45 
   3   0   0   0   0   0   0   0   0   0   0   5   8   0   0   0   5   0   0   0   0   0   0   0   0   0   4   0   6   8   0  18 101 98 95 92 88 86 74 70 69 66 64 61 60 59 55 54 52 48 
   9   0   0   0   0   0   5   0   0   7   0   0   0   0   0   0   0   0   7   9   0   0   0   0   6   0  10   0   0   6   0  16 99 98 96 92 91 88 87 85 80 73 72 71 69 61 49 34 
   3   0   0   0   1   0   4   0   0   0   0   0   0   9   0   0   0   0   0   0   0   0   0   0   7   2   0   0   0   0   0  19 99 98 97 94 92 91 90 72 70 69 67 65 61 59 58 57 55 54 48 
   7   0   0   0   0   0   0   0   0   0   0   0   0   0   0   0   0   0   0   0   0   0   0   0   0   0   0   9   0   0   0  16 100 99 93 92 90 86 85 71 70 69 65 61 58 57 41 38 
   3   6   0   0   0   0   0   0   0   0   0   0   0   5   0   0   0   0   0   0   0   0   0   0   0   0   0   9   0   0   0  11 101 99 88 85 72 70 69 58 52 41 40 
  10   7   8   5   0   0   0   0   0   0  10   0   0   0   0   0   0   0   0   0   6   0   0   0   0   0   0   2   0   0   0  14 99 92 90 86 82 69 68 63 62 61 57 55 47 44 
   2   4   0   7   0   0   0   0   0   0   0   0   0   7   4   1   0   0   0   0   0   0   0   0   0   0   0   0   3   0   0  11 98 97 90 89 82 76 71 66 62 49 47 
   9   0   2   0   0   0   0   0   0   0   5   0   0   0  10   4   0   0   0   0   0   0   0   7   0   9   0   0   0   0   0  11 97 90 89 85 81 71 69 66 62 61 38 
   8   0   0   0   0   0   0   0   0   0   0   0   0   7   0   0   0   7   5   0   8   0   0   0   0   0   7   0  10   0   0  17 99 95 92 90 89 88 87 86 85 81 80 71 69 68 66 61 58 
   5   0  10   7   4   0   0   0   0   6   0   0   0   9   0   0   0   0   0   0   0   0   0   7   7   0   0   0   0   0   0  12 101 98 94 92 89 87 86 84 82 71 66 43 
   3   0   0   0   0   0   0   5   0   0   0   0   0   0   0   0   0   0   8   0   0   0   0   0   0   0   0   0   0   0   4   9 101 95 89 88 85 82 70 62 43 
   8   0   0   0   0   5   0   0   0   0   0   0   0   6   0   0   0   0   7   9   0   0   0   0   5   0   0   7   0   0   0   9 97 96 93 86 85 82 65 64 43 
   8   0   0   0   0   0   0   0   4   0   8   0   0   0   0   0   0   0   0   0   0   0   0   0   0   0   9   0   0   0   4   9 94 92 90 83 82 70 69 61 47 
   8   0   0   0   0   0   0   0   0   0   0   3   0   0   0   0   0   0   0   0   7   3   0   0   0   0   0   0   0   0   0  16 100 94 93 91 90 86 85 83 82 81 80 78 76 68 67 65 
   1   0   0   0   0   7   0   0   0   9   0   0   0   0   0   9   0   0   5   0   0   0   0   0   0   0  10   0   0   0   0  15 100 97 93 92 91 86 85 84 82 80 79 78 69 66 64 
   1   0   0   0   0   0   9   0   9   0   0   0   0   0   0   0   0   0   0   0   8   0   1   0   0   0   0   0   0   0   7  14 100 95 90 88 83 82 80 78 77 73 71 70 69 67 
   5   0   0   6   0  10   0   0   0   0   0   0   0   5   0   0   0   0   0   0   0   8   7   0   8   4   5   0   0   0   0   9 95 93 89 86 81 79 78 60 52 
   7   0   5   0   0   0   0   0   0   0   0   0   0   0   0   7   0   0   0   2   0   0   0   8   0   0   0   0   0   0   0  13 95 92 88 87 84 82 81 79 78 76 68 67 63 
   4   4   0   0   0   0   6   0   0   3   0   0   0   0   0   0   0   0   0   0  10   0   0   0   0   0   9   0   0   0   0  11 101 96 94 93 92 86 85 71 69 67 54 
   3   7   0   9   8   0   9   0   0   0   0  10   0   0   0   0   7   0   0   0   0   0   0   0   0   0   0   0   0   0   0  11 101 87 86 83 81 79 78 76 72 68 67 
   5   0   0   0   0   0   0   9   6   0   0   0   0   0   0   0   0   6   0   0   0   0   0   0   0   0   0   0   0   0   0   9 98 88 84 83 82 76 68 67 54 
   6  10   0   0   0   0   0   0   0   0   0   0   0   0   0   0   9   0   0   0   0   6   0   0   0   0   0   0   0   0   0  10 95 94 93 83 79 78 70 69 68 67 
   7   0   0   0   0   0   0   0   0   0   0   0   0   0   0   0   0   0   0   0   0   0   0   0   0   0   0   0   0   0   0   8 97 91 89 86 79 68 67 57 
   1   0   0   0   0   6   0   0   0   0   0   0   0   0   0   0   0   0   0   0   0   0   0   0   0   0   5   3   6   0   0   9 91 83 82 80 79 78 76 68 66 
   4   0   0   0   0   0   0   8   0   0   0   8   0   0   0   0   0   0   0   0   0   0   0   0   0   0   0   0   0   4   0   9 87 85 80 78 77 75 72 69 61 
  10   4   0   0   0   0   0   0   0   0   0   0   0   3   0   7  10   0   0   0   0   0   0   0   0   0   0   0   0   0   0   6 83 81 69 68 67 54 
   6   0   0   0   0   0   0   0   0   0   0   0   0   0   0   0   0   0   0   0   0   3   0   0   0   0   0   0   0   0   0  10 93 91 89 88 84 83 79 78 76 67 
   7   0   7   3   0   0   7   0   0   0   0   0   6   0   0   0   0   0   0   0   0   0   0   0   0   0   0   0   0   0   0   8 90 83 82 79 76 67 63 62 
  10   0   0   0   7   0   7   0   0   0   0   0   0   0   0  10   0   0   8   0   0   0   5   0   0   0   0   0   0   6   0   8 89 85 84 82 81 78 69 68 
   8   0   0   0   0   0   0   0   0   0   8   0   0   0   0   0   0   0   0   7   5   0   0   0   4   0   0   0   0   0   0   9 96 91 88 85 84 81 80 78 77 
   4   9   0   0   0   0   0   0   0   0   0   0   0   0   0   7   0   0   0   0   0   0   0   0   0   1   0   0   0   0   0   8 93 89 85 81 79 78 76 68 
   8   0   0   0   0   0   0   3   0   0   0   0   0   0   0   0   0   0   0   0   0   4   0   0   7   0   0   0   0   0   0   7 86 83 81 79 78 68 67 
   7   6   5   7   0   0   0   0   0   6   0   0   0   0   0   0   0   3   0   0   0   0   0   0   0   0   0   0   0   0   0   8 88 85 84 83 81 77 76 75 
   2   0   0   0   0   0   0   0   0   0   0   0   0   0   0   8   0   0   0   0   0   0   0   0   0   0   0   0   7   0   0   6 86 82 80 78 69 68 
  10   0   0   6   0   0   0   0   0   0   0   0   0   0   0   0   0   0   0   0   0   5   0   0   0   0   0   0   0   0   0   6 94 90 83 82 76 75 
   4   7   5   0   0   0   0   4   0   0   0   0   0   0   0   0   0   0   0   0   0   0   0   0   0   0   0   0   0   0   0   5 82 81 80 79 75 
   1   0   0   0   0   0   0   0   0   0   0   0   0   0   0   7   0   0   0   0   4   0   0   0   0   0   0   0   0   0   0   4 80 79 78 75 
  10   0   0   0   0   0   0   0   0   0   4   0   0   0   0   4   0   4   0   0   0   0   0   0   0   0   0   0   0   0   0   4 83 80 79 77 
   3   0   0   0   0   0   0   0   0   0   0   4   0   0   0   0   0   0   0   7   0   0   0   0   0   9   0   8   0   0   0   4 81 80 77 76 
   9   0   4   0   0   0   0   0   0   0   0   0   0   4   0   0   0   0   0   0   0   0   0   0   0   0   0   0   0   0   0   3 87 81 78 
   7   0   0   0   0   0   0   0   0   0   0   0   0   0   0   0   0   0   0   0   0   0   0   0   0   0   3   0   0   0   0   3 84 83 78 
   6   0   0   7   0   0   0   0   0   7   0   0   0   0   0   0   0   3   0   0   0   0   0   0   0   4   0   0   0   0   0   3 84 82 76 
  10   0   0   0   0   0   0   0   0   9   0   8   0  10   0   0   0   0   0   0   0   0   0   0   0   0   0   0   0   0   0   2 84 67 
   9   0   0   0   0   0   0   0   0   0   0   0   5   0   0   8   0   0   0   0   0   0   0   0   0   0   0   0   0   0   0   2 79 76 
   3   0   0   0   0   0   0   0   0   0   0   0   0   0   0   0   0   0   0   7   0   0   0   0   0   0   0   0   0  10   0   2 87 75 
   1   0   0   0   0   0   0   0   0   0   0   0   0   0   0   5   0   0   0   0   0   0   0   0   0   0   0   0   8   0   0   2 80 75 
  10   0   6   0   0   0   0   0   5   0   0   0   0   0   0   0   0   0   0   0   4   0   0   0   0   0   0  10   0   0   0   2 77 76 
   3   0   8   0   0   0   0   0   0   0   0   5   0   0   0   5   4   0   7   0   0   0   0   0   0   0   0   0   0   0   0   2 79 77 
   5   0   0   7   0   0   3   8   0   0   0   0   0   0   7   0   0   0   0   0   7   0   0   0   0   0   6   0   6   0   0   1 67 
   6   0   0   0   0   0   0   0   0   0   0   0   0   0   6   0   0   0   0   0   0   5   9   0   0   0   0   0   0   0   0   1 75 
  10   0   0   0   0   0   0  10   0   0   0   3   0   0   4   0   0   0   0   0   7   0   0   0   0   0   0   0   5   0   0   1 77 
   5   0   4   0   0   0   0   0   0   0   0   0   0   5   0   0   0   0   0   0   0   4   0   0   9   0   0   0   0   0   0   1 76 
   9   0   0   0   0   0   0   0   5   0   0   0   0   0   0   4   0   9   0   0   0   0   0   0   0   0   6   0   0   0   0   1 75 
   7   0   0  10   0   0   8   0   0   0   0   0   0   0   0   0   0   0   0   0   0   0   0   0   6   0   0   0   0   0   0   1 75 
   3   0   0   0   6   0   0   0   0   0   0   0   0   0   6   3   0   0   0   0   2   9   7   0   7   0   0   0   0   0   0   1 82 
   1   0   0   6   8   0   0   0   7   0   0   8   0   9   0   0   0   0   0   0   9   0   0   0   0   0   0   0   0   0   0   1 81 
  10   3   0   3   0   0   0   0   4   0   0   9   7   0   0   0   0   0   0   5   0   0   0   0   0   0   0   0   0   0   0   1 77 
   4   0   4   0   0   5   0   0   0   0   0   7   6   0   0   0   0   0   0   0   2   0   6   0   0   0   0   0   0   0   0   1 102
   9   0   9   0   0   0   5   0   0   7   0   0   0   0   6   0   0   0   0   0   0   6   0   3   6   0   0   0   0   0   0   1 102
  10   0   0   0   0   0   0   0   0   0   0   0   0   0   0   0   0   0   6   0   0   0   5   3   0   0   0   0   7   0   0   1 102
   6   0   0   5   0   0   0   0   0   0   0   0   0   3   0   0   0   0   0   0   8   0   8   9   8   0   0   0   0   0   0   1 102
   6   0   0   0   0   0   0   0   0   5   0   0   0   0   0   0   0   7   0   0   0   0   0   0   0   0   0   0   0   0   0   1 102
   5   0   0   0   0   0   0   0   0   0   0   0   0   0   0   7   0   0   0   0   6   0   0   0   0   0   0   0   0   0   0   1 102
   8   0   0   0   0   0   0   0   0   0   0   0   0   0   0   0   0   0   0   0   0   0   0   0   0   0   0   5   0   0   0   1 102
   3   8   0   0   0   0   0   0   0   6   0   0   0   0   0   6   0   0   0   0   0   9   0   0   0   0   0   0   0   0   0   1 102
   9   0   0   0   0   0   2   0   0   0   0   0   0   0   0   0   0   0   0   0   0   5   5   0   0   0   5   6   0   0   0   1 102
   7   0   0   0   0   0  10   0   0   0   0   0   0   0   0   0   0   0   0   7   0   0   0   0   0   0   0   0   0   0   0   1 102
   4   0   0   0   0   0   0   0   0   0   0   0   0   0   0   0   0   0   0   0   0   0   0   0   3   0   0   0   0   0   0   1 102
   4   0   0   0   0   0   0   0   8   0   0   0   0   0   0   0   6   0   0   0   0   9   0   0   0   0   0   0   0   0   0   1 102
   6   0   0   0   0   0   0   0   0   0   0   0   0   0   0   0   0   0   0   0   0   0   6   0   0   0   0   0   0   0   0   1 102
   5   0   0   0   0   5   0   0   0   0   0   0   0   0   0   0   0   8   0   0   0   0   0   0   0   0   0   0   0   0   0   1 102
   5   0   0   0   0   7  10   0   0   0   0   5   0   0   8   0   0   0   0   0   0   0   0   0   0   0   0   0   0   0   0   1 102
   2   0   0   4   0   0   0   0   0   0   0   0   0   0   7   0   0   0   0   0   0   7   0   0   0   0   5   0   0   0   7   1 102
   7   0   4   0   5   0   0   0   9   0   0   0   0   0   0   0   0   0   0   7   0   0   0  10   0   0   0   0   6   0   0   1 102
   3   0   0   7   0   0   0   0   0   0   0   0   0   0   0   0   0   0   0   0   0   0   0   0   0   0   0   0   0   0   6   1 102
   7   0   0   0   9   0   0   0   0   0   0   4   0   0   0   0   0   0   0   0   0   0   0   0   0   0   0   0   0   0   0   1 102
   5   0   0   7   0   0   0   0   0   0  10   0   0   0   0   0   0   0   0   0   0   0   0   0   0  10   0   0   0   0   0   1 102
   5   0   0   6   0   0   0   0   0   0   0   0   0   0   0   0   0   0   7   0   0   0   7   0   0   0   0   6   0  10   0   1 102
   4   0   0   0   0   0   0   0   0   0   0   0   4   0   0   0   0   0   0   0   0   0   0   0   0   0   5   0   0   0   7   1 102
   1   0   0   0   0   0   0   0   0   0   5   0   0   0   0   0   0   0   0   0   0   0   0   0   0   0   0   0   0   0   0   1 102
   1   0   0   0   0   0   0   0   0   0   0  10   0   6   0   0   0   0   5   0   0   0   0   0   0   0   0   0   0   6   0   1 102
  10   0   0   0   0   0   0   7   0   0   2   0   0   0   0   0   0   0   0   0   0   9   0   4   0   0   0   0   0   0   9   1 102
   1   0   8   0   0   0   0   0   0   0   5   0   0   0   0   0   0   6   0   0   0   0   0   0   0   9   0   0   0   0   0   1 102
   4   0   0   0   0   0   0   4   8   0   0   0   0   0   0   0   7  10   0   8   8   0   0   8   0   0   0   0   0   5   0   1 102
   0   0   0   0   0   0   0   0   0   0   0   0   0   0   0   0   0   0   0   0   0   0   0   0   0   0   0   0   0   0   0   0 
